
n_res = 8;
rcap = [43, 41, 38, 37, 701, 737, 708, 868];
rtype = [1, 1, 1, 1, 2, 2, 2, 2];
n_tasks = 50;
modes =  [{1, 2, 3, 4, 5, 6}, {7, 8, 9, 10, 11, 12}, {13, 14, 15, 16, 17, 18}, {19, 20, 21, 22, 23, 24}, {25, 26, 27, 28, 29, 30}, {31, 32, 33, 34, 35, 36}, {37, 38, 39, 40, 41, 42}, {43, 44, 45, 46, 47, 48}, {49, 50, 51, 52, 53, 54}, {55, 56, 57, 58, 59, 60}, {61, 62, 63, 64, 65, 66}, {67, 68, 69, 70, 71, 72}, {73, 74, 75, 76, 77, 78}, {79, 80, 81, 82, 83, 84}, {85, 86, 87, 88, 89, 90}, {91, 92, 93, 94, 95, 96}, {97, 98, 99, 100, 101, 102}, {103, 104, 105, 106, 107, 108}, {109, 110, 111, 112, 113, 114}, {115, 116, 117, 118, 119, 120}, {121, 122, 123, 124, 125, 126}, {127, 128, 129, 130, 131, 132}, {133, 134, 135, 136, 137, 138}, {139, 140, 141, 142, 143, 144}, {145, 146, 147, 148, 149, 150}, {151, 152, 153, 154, 155, 156}, {157, 158, 159, 160, 161, 162}, {163, 164, 165, 166, 167, 168}, {169, 170, 171, 172, 173, 174}, {175, 176, 177, 178, 179, 180}, {181, 182, 183, 184, 185, 186}, {187, 188, 189, 190, 191, 192}, {193, 194, 195, 196, 197, 198}, {199, 200, 201, 202, 203, 204}, {205, 206, 207, 208, 209, 210}, {211, 212, 213, 214, 215, 216}, {217, 218, 219, 220, 221, 222}, {223, 224, 225, 226, 227, 228}, {229, 230, 231, 232, 233, 234}, {235, 236, 237, 238, 239, 240}, {241, 242, 243, 244, 245, 246}, {247, 248, 249, 250, 251, 252}, {253, 254, 255, 256, 257, 258}, {259, 260, 261, 262, 263, 264}, {265, 266, 267, 268, 269, 270}, {271, 272, 273, 274, 275, 276}, {277, 278, 279, 280, 281, 282}, {283, 284, 285, 286, 287, 288}, {289, 290, 291, 292, 293, 294}, {295, 296, 297, 298, 299, 300}];
succ =  [{48, 32, 23, 19, 18, 11, 6}, {47, 32, 31, 28, 27, 24, 22, 16, 11}, {50, 47, 45, 33, 28, 27, 23, 20, 8}, {50, 47, 34, 31, 26, 23, 14}, {48, 47, 45, 44, 32, 21, 20, 18}, {50, 47, 45, 34, 27, 26, 21, 20}, {31, 28, 26, 14}, {44, 32, 22, 18}, {49, 44, 43, 42, 41, 40, 31, 30, 28}, {48, 47, 44, 42, 41, 40, 38, 30, 26}, {49, 46, 45, 42, 39, 33, 30, 26}, {45, 42, 41, 39, 38, 30, 23}, {47, 41, 40, 31, 28, 26}, {48, 46, 45, 42, 19}, {45, 44, 43, 42, 38, 27}, {46, 45, 40, 39, 26}, {43, 41, 40, 33, 32}, {43, 40, 39, 30, 29}, {44, 41, 40, 39, 37}, {46, 39, 38, 29}, {41, 40, 37, 31}, {41, 39, 38, 37}, {44, 40, 29}, {49, 38, 29}, {40, 38, 37}, {43, 29}, {41, 29}, {39, 38}, {37}, {37}, {38}, {42}, {38}, {42}, {39}, {39}, {}, {}, {}, {}, {}, {}, {}, {}, {}, {}, {}, {}, {}, {}];
n_opt = 300;
dur = [8, 9, 11, 14, 20, 25, 7, 8, 9, 13, 24, 29, 2, 3, 4, 5, 6, 26, 5, 12, 15, 17, 21, 29, 9, 10, 21, 22, 24, 25, 2, 3, 5, 10, 23, 27, 9, 13, 14, 22, 24, 28, 2, 3, 8, 13, 23, 28, 3, 9, 12, 18, 19, 20, 6, 13, 20, 21, 22, 25, 5, 18, 21, 25, 26, 30, 9, 10, 12, 18, 19, 20, 2, 5, 8, 14, 21, 25, 1, 3, 5, 7, 12, 23, 1, 2, 11, 20, 21, 23, 12, 18, 19, 20, 21, 29, 7, 8, 14, 16, 22, 30, 4, 5, 12, 13, 24, 25, 3, 4, 7, 11, 18, 27, 3, 6, 8, 12, 15, 26, 1, 4, 5, 15, 17, 30, 2, 5, 15, 19, 27, 29, 2, 12, 14, 15, 17, 20, 1, 6, 13, 14, 20, 22, 1, 2, 3, 14, 16, 17, 3, 8, 14, 17, 19, 25, 4, 6, 14, 16, 21, 25, 2, 4, 5, 12, 13, 28, 5, 9, 11, 13, 14, 29, 2, 7, 13, 14, 23, 28, 2, 9, 16, 19, 20, 27, 4, 9, 14, 16, 21, 30, 4, 8, 11, 17, 25, 29, 11, 13, 17, 18, 20, 23, 4, 6, 10, 14, 22, 27, 7, 12, 17, 24, 26, 30, 6, 11, 24, 26, 27, 29, 17, 18, 27, 28, 29, 30, 2, 13, 18, 19, 22, 28, 4, 9, 10, 18, 21, 26, 11, 15, 16, 17, 21, 24, 5, 12, 13, 19, 28, 30, 7, 8, 19, 21, 25, 26, 3, 9, 14, 19, 22, 25, 4, 5, 6, 9, 17, 25, 5, 11, 17, 22, 26, 29, 8, 11, 13, 17, 19, 28, 11, 24, 25, 27, 28, 30, 17, 19, 20, 23, 25, 28, 1, 2, 18, 19, 28, 30];
rreq = [|3, 3, 2, 2, 2, 1, 5, 5, 5, 5, 5, 5, 4, 3, 3, 3, 3, 3, 4, 4, 4, 3, 2, 2, 5, 4, 4, 3, 2, 2, 4, 4, 4, 3, 2, 2, 4, 4, 3, 3, 3, 2, 4, 4, 4, 4, 3, 3, 4, 3, 2, 2, 2, 1, 3, 2, 2, 1, 1, 1, 2, 2, 2, 2, 2, 2, 2, 1, 1, 1, 1, 1, 5, 4, 4, 4, 3, 3, 4, 3, 3, 3, 3, 3, 3, 3, 3, 3, 3, 3, 3, 2, 2, 1, 1, 1, 3, 3, 3, 3, 2, 2, 4, 3, 3, 3, 2, 1, 3, 3, 3, 3, 2, 2, 4, 4, 4, 3, 3, 2, 2, 2, 2, 2, 1, 1, 4, 4, 4, 4, 4, 4, 4, 4, 3, 3, 2, 1, 4, 3, 3, 3, 3, 3, 4, 3, 3, 2, 2, 2, 4, 4, 4, 3, 3, 2, 1, 1, 1, 1, 1, 1, 4, 4, 4, 3, 3, 3, 2, 1, 1, 1, 1, 1, 2, 2, 2, 2, 1, 1, 5, 4, 4, 3, 3, 3, 5, 4, 4, 4, 3, 3, 5, 5, 5, 5, 5, 5, 4, 4, 4, 4, 4, 4, 3, 2, 2, 1, 1, 1, 4, 3, 3, 3, 2, 2, 5, 4, 4, 4, 3, 3, 5, 4, 4, 4, 4, 4, 4, 4, 4, 4, 4, 4, 5, 4, 4, 4, 4, 4, 5, 5, 5, 5, 5, 5, 2, 2, 2, 2, 2, 2, 2, 1, 1, 1, 1, 1, 5, 4, 4, 4, 4, 4, 5, 4, 3, 3, 3, 2, 4, 3, 3, 2, 2, 2, 5, 4, 4, 4, 4, 4, 2, 1, 1, 1, 1, 1, 1, 1, 1, 1, 1, 1, 3, 3, 3, 3, 2, 2
 |1, 1, 1, 1, 1, 1, 5, 3, 3, 3, 1, 1, 4, 4, 4, 3, 2, 2, 5, 5, 5, 5, 5, 5, 4, 4, 4, 3, 3, 3, 5, 4, 4, 3, 3, 3, 3, 3, 3, 3, 3, 3, 4, 3, 3, 3, 2, 2, 2, 2, 2, 1, 1, 1, 4, 3, 3, 3, 1, 1, 4, 3, 3, 3, 2, 2, 3, 3, 3, 3, 3, 3, 4, 4, 4, 4, 3, 3, 5, 4, 4, 4, 4, 4, 5, 4, 3, 3, 2, 2, 2, 2, 2, 2, 2, 2, 2, 2, 2, 2, 2, 2, 4, 4, 4, 3, 3, 2, 4, 4, 4, 3, 3, 2, 5, 4, 3, 2, 1, 1, 4, 4, 4, 3, 3, 3, 5, 4, 4, 3, 3, 3, 3, 3, 2, 2, 1, 1, 5, 4, 3, 2, 2, 1, 5, 4, 4, 4, 4, 4, 1, 1, 1, 1, 1, 1, 5, 3, 3, 2, 1, 1, 4, 4, 4, 4, 3, 3, 4, 3, 3, 3, 2, 2, 3, 3, 3, 2, 2, 2, 5, 5, 5, 5, 5, 5, 3, 3, 3, 3, 3, 3, 2, 2, 2, 1, 1, 1, 4, 4, 4, 3, 3, 3, 4, 3, 3, 3, 3, 3, 3, 2, 2, 2, 1, 1, 4, 4, 4, 3, 3, 3, 3, 3, 3, 3, 3, 3, 4, 4, 4, 4, 4, 4, 3, 3, 3, 2, 2, 2, 4, 4, 4, 4, 4, 4, 2, 2, 2, 2, 2, 2, 2, 1, 1, 1, 1, 1, 5, 4, 3, 3, 3, 2, 5, 5, 5, 5, 5, 5, 1, 1, 1, 1, 1, 1, 5, 4, 4, 4, 3, 3, 5, 4, 4, 4, 3, 3, 1, 1, 1, 1, 1, 1, 4, 4, 4, 4, 3, 3
 |5, 5, 5, 5, 5, 5, 1, 1, 1, 1, 1, 1, 2, 2, 2, 1, 1, 1, 1, 1, 1, 1, 1, 1, 2, 2, 2, 2, 2, 2, 4, 4, 3, 3, 2, 1, 4, 4, 4, 3, 3, 3, 2, 2, 2, 2, 2, 2, 2, 2, 2, 2, 2, 2, 4, 4, 3, 3, 2, 2, 3, 3, 3, 3, 3, 3, 5, 4, 4, 4, 3, 3, 4, 3, 3, 2, 2, 2, 3, 3, 3, 2, 2, 1, 5, 4, 3, 3, 2, 1, 4, 3, 3, 2, 2, 1, 4, 4, 4, 4, 3, 3, 5, 4, 4, 4, 4, 4, 2, 1, 1, 1, 1, 1, 1, 1, 1, 1, 1, 1, 5, 4, 4, 4, 4, 4, 4, 3, 3, 3, 2, 2, 3, 3, 3, 3, 3, 3, 5, 5, 5, 5, 5, 5, 3, 3, 3, 2, 2, 2, 1, 1, 1, 1, 1, 1, 5, 4, 3, 2, 1, 1, 5, 4, 3, 3, 2, 1, 5, 4, 4, 3, 3, 3, 4, 3, 3, 2, 1, 1, 2, 1, 1, 1, 1, 1, 4, 3, 3, 2, 1, 1, 2, 2, 2, 2, 2, 2, 3, 3, 3, 3, 3, 3, 4, 4, 3, 3, 2, 1, 4, 3, 3, 2, 1, 1, 3, 2, 2, 1, 1, 1, 4, 3, 3, 3, 3, 3, 3, 2, 2, 2, 2, 2, 3, 3, 3, 3, 3, 3, 4, 3, 3, 3, 3, 3, 5, 4, 4, 4, 3, 3, 3, 2, 2, 2, 2, 2, 3, 3, 3, 3, 3, 3, 5, 4, 4, 4, 4, 4, 3, 3, 3, 3, 3, 3, 3, 2, 2, 2, 2, 2, 1, 1, 1, 1, 1, 1, 5, 4, 3, 3, 3, 2, 4, 4, 4, 4, 4, 4
 |4, 3, 2, 2, 1, 1, 4, 4, 4, 4, 3, 3, 2, 1, 1, 1, 1, 1, 4, 4, 4, 4, 4, 4, 1, 1, 1, 1, 1, 1, 4, 3, 2, 2, 1, 1, 5, 5, 5, 5, 5, 5, 4, 3, 3, 3, 1, 1, 4, 4, 4, 4, 3, 3, 3, 3, 2, 2, 2, 1, 4, 4, 4, 4, 3, 3, 1, 1, 1, 1, 1, 1, 4, 3, 3, 3, 2, 2, 4, 4, 4, 4, 4, 4, 4, 3, 3, 3, 2, 2, 4, 4, 4, 4, 4, 4, 4, 4, 4, 4, 3, 3, 4, 4, 4, 3, 3, 2, 4, 4, 4, 3, 2, 2, 2, 2, 2, 2, 2, 2, 4, 3, 2, 2, 2, 1, 4, 4, 4, 4, 4, 4, 4, 3, 3, 3, 2, 2, 4, 3, 3, 2, 2, 2, 1, 1, 1, 1, 1, 1, 1, 1, 1, 1, 1, 1, 4, 3, 3, 2, 2, 2, 3, 3, 3, 3, 2, 2, 2, 2, 2, 2, 1, 1, 3, 3, 3, 3, 2, 2, 2, 2, 2, 2, 2, 2, 4, 4, 4, 4, 3, 3, 4, 3, 3, 2, 1, 1, 1, 1, 1, 1, 1, 1, 4, 4, 4, 4, 4, 4, 3, 2, 2, 2, 2, 2, 2, 1, 1, 1, 1, 1, 4, 3, 2, 2, 1, 1, 4, 3, 3, 3, 1, 1, 4, 3, 2, 2, 2, 1, 5, 5, 5, 5, 5, 5, 3, 3, 3, 3, 2, 2, 3, 3, 3, 2, 2, 1, 3, 3, 3, 3, 3, 3, 5, 4, 3, 3, 2, 2, 5, 5, 5, 5, 5, 5, 5, 5, 5, 5, 5, 5, 4, 4, 4, 4, 4, 4, 4, 4, 4, 3, 2, 2, 4, 4, 4, 3, 3, 3
 |22, 19, 13, 9, 9, 4, 19, 18, 18, 17, 17, 17, 21, 19, 14, 11, 9, 3, 19, 19, 19, 19, 19, 19, 21, 21, 16, 13, 9, 6, 9, 8, 8, 8, 8, 8, 17, 14, 13, 11, 7, 6, 30, 29, 29, 29, 29, 29, 1, 1, 1, 1, 1, 1, 13, 12, 12, 12, 11, 11, 19, 18, 17, 15, 15, 14, 2, 2, 2, 1, 1, 1, 20, 17, 12, 9, 5, 4, 12, 10, 10, 9, 8, 6, 27, 25, 23, 20, 16, 15, 19, 17, 13, 12, 9, 7, 21, 19, 18, 16, 15, 14, 24, 22, 17, 15, 11, 11, 21, 21, 21, 20, 20, 20, 10, 9, 9, 8, 7, 5, 27, 22, 18, 12, 10, 6, 24, 21, 19, 14, 11, 9, 24, 20, 18, 16, 13, 9, 17, 17, 17, 16, 16, 15, 9, 9, 6, 5, 2, 2, 22, 21, 21, 19, 19, 18, 10, 9, 9, 8, 8, 7, 11, 11, 11, 11, 11, 11, 23, 18, 14, 9, 6, 4, 21, 20, 17, 17, 13, 13, 19, 17, 16, 12, 8, 6, 15, 15, 14, 13, 10, 10, 10, 9, 8, 6, 6, 5, 19, 19, 18, 18, 18, 17, 20, 15, 13, 13, 7, 5, 4, 4, 4, 3, 3, 3, 18, 16, 15, 13, 12, 10, 14, 13, 11, 10, 7, 7, 19, 17, 14, 13, 13, 10, 24, 22, 19, 18, 16, 16, 24, 24, 24, 24, 23, 23, 5, 4, 4, 4, 4, 4, 19, 18, 15, 14, 12, 10, 24, 22, 16, 13, 12, 7, 23, 22, 20, 17, 12, 9, 21, 19, 15, 12, 9, 6, 30, 25, 22, 18, 15, 14, 15, 14, 14, 14, 14, 14, 23, 23, 23, 23, 22, 22, 17, 17, 14, 13, 13, 11
 |22, 17, 15, 14, 12, 8, 18, 17, 15, 11, 11, 7, 24, 24, 21, 20, 17, 14, 25, 19, 15, 14, 9, 8, 23, 22, 21, 18, 17, 15, 26, 22, 18, 16, 15, 11, 6, 6, 6, 5, 5, 5, 14, 12, 12, 9, 8, 6, 16, 16, 16, 15, 14, 14, 18, 14, 14, 10, 7, 6, 20, 19, 19, 19, 19, 19, 6, 6, 6, 6, 6, 6, 16, 13, 9, 8, 4, 3, 26, 23, 19, 13, 9, 9, 20, 19, 19, 18, 17, 17, 26, 22, 18, 14, 12, 8, 12, 10, 10, 10, 8, 8, 22, 20, 18, 18, 17, 15, 15, 13, 10, 8, 6, 3, 26, 22, 18, 16, 9, 5, 7, 7, 6, 5, 4, 3, 6, 5, 5, 4, 3, 3, 6, 6, 6, 5, 5, 5, 8, 7, 7, 6, 5, 5, 23, 21, 17, 14, 9, 6, 17, 15, 15, 15, 14, 13, 18, 15, 12, 9, 8, 6, 22, 21, 17, 16, 15, 10, 16, 12, 12, 8, 6, 6, 27, 24, 22, 21, 19, 18, 16, 14, 12, 10, 9, 6, 27, 26, 25, 25, 24, 23, 15, 12, 12, 10, 10, 8, 9, 8, 8, 8, 6, 6, 17, 16, 15, 14, 10, 9, 28, 28, 28, 28, 28, 28, 20, 19, 18, 16, 15, 14, 28, 28, 28, 28, 28, 28, 26, 25, 24, 24, 23, 22, 14, 12, 10, 8, 6, 5, 23, 20, 17, 15, 12, 9, 24, 23, 15, 12, 8, 6, 26, 24, 23, 22, 20, 18, 18, 14, 13, 9, 9, 7, 27, 20, 17, 13, 11, 4, 29, 27, 24, 21, 21, 17, 29, 20, 17, 15, 7, 5, 24, 21, 20, 17, 17, 14, 16, 14, 12, 9, 7, 7, 17, 15, 15, 14, 13, 13
 |24, 22, 21, 21, 20, 19, 9, 9, 7, 5, 5, 2, 25, 20, 17, 15, 11, 10, 4, 4, 4, 3, 3, 3, 20, 17, 12, 11, 6, 4, 4, 3, 3, 3, 3, 3, 21, 19, 16, 16, 14, 11, 22, 22, 20, 20, 18, 18, 25, 25, 25, 25, 24, 24, 17, 16, 12, 12, 7, 6, 13, 10, 8, 8, 7, 4, 23, 17, 16, 12, 8, 5, 16, 15, 15, 15, 14, 14, 28, 26, 22, 18, 18, 13, 11, 9, 9, 6, 6, 5, 25, 23, 20, 19, 14, 11, 23, 21, 20, 19, 17, 17, 21, 20, 18, 14, 13, 11, 18, 16, 15, 15, 13, 13, 13, 12, 12, 11, 10, 8, 26, 24, 23, 21, 20, 20, 13, 12, 9, 7, 6, 4, 18, 16, 16, 15, 14, 14, 21, 21, 18, 15, 11, 10, 4, 3, 3, 2, 1, 1, 24, 21, 21, 18, 17, 15, 22, 18, 17, 14, 9, 9, 19, 19, 17, 17, 16, 15, 13, 12, 11, 10, 10, 9, 17, 15, 15, 11, 10, 9, 29, 27, 24, 23, 20, 18, 24, 22, 21, 20, 20, 18, 14, 13, 11, 7, 5, 1, 14, 13, 12, 12, 12, 11, 17, 14, 13, 11, 6, 5, 15, 15, 15, 14, 14, 14, 21, 17, 12, 12, 6, 2, 12, 11, 11, 11, 11, 11, 11, 11, 11, 11, 11, 11, 26, 23, 21, 18, 16, 14, 13, 12, 10, 10, 8, 7, 12, 9, 8, 8, 6, 6, 22, 20, 19, 15, 14, 10, 18, 17, 16, 16, 15, 14, 10, 10, 10, 10, 9, 9, 24, 22, 21, 20, 19, 19, 17, 13, 10, 8, 5, 2, 27, 26, 25, 23, 23, 21, 16, 14, 12, 10, 8, 5, 16, 16, 15, 15, 14, 14
 |29, 27, 24, 23, 21, 18, 23, 22, 22, 21, 21, 21, 29, 27, 25, 21, 21, 19, 20, 20, 17, 14, 10, 8, 14, 13, 12, 11, 10, 9, 27, 25, 23, 22, 18, 18, 29, 28, 27, 26, 25, 25, 20, 18, 16, 13, 10, 9, 26, 24, 22, 20, 19, 18, 27, 26, 23, 21, 20, 17, 22, 21, 20, 18, 17, 17, 18, 18, 18, 18, 18, 18, 22, 22, 18, 16, 9, 8, 12, 9, 6, 5, 3, 2, 30, 29, 29, 28, 28, 27, 18, 17, 17, 17, 16, 16, 18, 18, 14, 13, 12, 8, 19, 16, 15, 11, 7, 6, 22, 22, 21, 20, 19, 18, 23, 19, 17, 14, 12, 12, 22, 21, 20, 18, 16, 16, 9, 7, 6, 5, 5, 4, 11, 11, 11, 11, 11, 11, 17, 16, 16, 15, 14, 14, 20, 19, 17, 17, 15, 13, 26, 25, 24, 24, 23, 23, 7, 7, 6, 6, 4, 4, 19, 18, 17, 17, 15, 14, 27, 26, 25, 25, 24, 23, 23, 19, 16, 12, 8, 5, 13, 12, 12, 10, 7, 7, 26, 25, 24, 23, 21, 20, 27, 26, 22, 18, 15, 13, 14, 14, 14, 14, 14, 14, 21, 17, 16, 13, 10, 8, 14, 14, 11, 8, 3, 2, 16, 13, 11, 7, 4, 1, 13, 10, 8, 8, 5, 4, 19, 18, 14, 13, 10, 9, 16, 13, 12, 11, 7, 7, 29, 29, 27, 27, 26, 25, 28, 24, 23, 21, 19, 17, 21, 17, 15, 13, 12, 9, 24, 23, 23, 23, 22, 22, 17, 17, 17, 17, 17, 17, 18, 18, 18, 18, 18, 18, 27, 26, 25, 25, 25, 24, 30, 28, 26, 22, 20, 20, 21, 20, 20, 18, 18, 17, 29, 24, 21, 16, 15, 10|];